maximize
4.67 x(1,1) + 0.0 x(1,1) - 122850.0 x(1,1) - 175 x(1,1) - 0.0 x(1,1) - 5435 x(1,1) - 0 x(1,1) + 0 x(1,1) + 54.35 x(1,1) + 0.95 x(1,1) + 4.67 x(1,2) + 0.0 x(1,2) - 122850.0 x(1,2) - 175 x(1,2) - 0.0 x(1,2) - 5435 x(1,2) - 0 x(1,2) + 0 x(1,2) + 54.35 x(1,2) + 0.9 x(1,2) + 4.67 x(1,3) + 0.0 x(1,3) - 122850.0 x(1,3) - 175 x(1,3) - 0.0 x(1,3) - 5435 x(1,3) - 0 x(1,3) + 0 x(1,3) + 54.35 x(1,3) + 0.6 x(1,3) + 4.67 x(1,4) + 0.0 x(1,4) - 122850.0 x(1,4) - 175 x(1,4) - 0.0 x(1,4) - 5435 x(1,4) - 0 x(1,4) + 0 x(1,4) + 54.35 x(1,4) + 0.27 x(1,4) + 4.67 x(1,5) + 0.0 x(1,5) - 122850.0 x(1,5) - 175 x(1,5) - 0.0 x(1,5) - 5435 x(1,5) - 550 x(1,5) + 0 x(1,5) + 0.0 x(1,5) + 1.0 x(1,5) + 4.67 x(1,6) + 0.0 x(1,6) - 122850.0 x(1,6) - 175 x(1,6) - 0.0 x(1,6) - 5538 x(1,6) - 550 x(1,6) + 55 x(1,6) + 55.38 x(1,6) + 0.0 x(1,6) + 4.67 x(1,7) + 0.0 x(1,7) - 122850.0 x(1,7) - 175 x(1,7) - 0.0 x(1,7) - 5841 x(1,7) - 0 x(1,7) + 0 x(1,7) + 58.41 x(1,7) + 0.9 x(1,7) + 4.67 x(1,8) + 0.0 x(1,8) - 122850.0 x(1,8) - 175 x(1,8) - 0.0 x(1,8) - 5877 x(1,8) - 0 x(1,8) + 0 x(1,8) + 58.77 x(1,8) + 1.0 x(1,8) + 4.67 x(1,9) + 0.0 x(1,9) - 122850.0 x(1,9) - 175 x(1,9) - 0.0 x(1,9) - 6040 x(1,9) - 0 x(1,9) + 604 x(1,9) + 60.4 x(1,9) + 0.78 x(1,9) + 4.67 x(1,10) + 0.0 x(1,10) - 122850.0 x(1,10) - 175 x(1,10) - 0.0 x(1,10) - 6040 x(1,10) - 0 x(1,10) + 0 x(1,10) + 60.4 x(1,10) + 0.83 x(1,10) + 0.0 x(2,1) + 0.0 x(2,1) - 103155.0 x(2,1) - 152 x(2,1) - 0.0 x(2,1) - 7980 x(2,1) - 0 x(2,1) + 0 x(2,1) + 79.8 x(2,1) + 0.92 x(2,1) + 4.18 x(3,1) + 5.0 x(3,1) - 192074.40000000002 x(3,1) - 230 x(3,1) - 0.0 x(3,1) - 11980 x(3,1) - 0 x(3,1) + 120 x(3,1) + 119.8 x(3,1) + 0.77 x(3,1) + 4.45 x(4,1) + 0.0 x(4,1) - 122360.0 x(4,1) - 175 x(4,1) - 0.0 x(4,1) - 7180 x(4,1) - 0 x(4,1) + 72 x(4,1) + 71.8 x(4,1) + 0.77 x(4,1) + 4.45 x(4,2) + 0.0 x(4,2) - 122360.0 x(4,2) - 175 x(4,2) - 0.0 x(4,2) - 9580 x(4,2) - 0 x(4,2) + 958 x(4,2) + 95.8 x(4,2) + 0.75 x(4,2) + 4.45 x(4,3) + 0.0 x(4,3) - 122360.0 x(4,3) - 175 x(4,3) - 0.0 x(4,3) - 10538 x(4,3) - 540 x(4,3) + 105 x(4,3) + 105.38 x(4,3) + 0.0 x(4,3) + 5.0 x(5,1) + 0.0 x(5,1) - 165789.0 x(5,1) - 206 x(5,1) - 0.0 x(5,1) - 12582 x(5,1) - 0 x(5,1) + 0 x(5,1) + 125.82 x(5,1) + 0.41 x(5,1) + 5.0 x(5,2) + 0.0 x(5,2) - 165789.0 x(5,2) - 206 x(5,2) - 0.0 x(5,2) - 12582 x(5,2) - 0 x(5,2) + 0 x(5,2) + 125.82 x(5,2) + 0.9 x(5,2) + 5.0 x(5,3) + 0.0 x(5,3) - 165789.0 x(5,3) - 206 x(5,3) - 0.0 x(5,3) - 12582 x(5,3) - 0 x(5,3) + 0 x(5,3) + 62.91 x(5,3) + 1.0 x(5,3) + 5.0 x(5,4) + 0.0 x(5,4) - 165789.0 x(5,4) - 206 x(5,4) - 0.0 x(5,4) - 12582 x(5,4) - 0 x(5,4) + 0 x(5,4) + 125.82 x(5,4) + 1.0 x(5,4) + 5.0 x(5,5) + 0.0 x(5,5) - 165789.0 x(5,5) - 206 x(5,5) - 0.0 x(5,5) - 12582 x(5,5) - 0 x(5,5) + 0 x(5,5) + 0.0 x(5,5) + 1.0 x(5,5) + 5.0 x(5,6) + 0.0 x(5,6) - 165789.0 x(5,6) - 206 x(5,6) - 0.0 x(5,6) - 12582 x(5,6) - 600 x(5,6) + 1250 x(5,6) + 125.82 x(5,6) + 0.0 x(5,6) + 5.0 x(5,7) + 0.0 x(5,7) - 165789.0 x(5,7) - 206 x(5,7) - 0.0 x(5,7) - 12590 x(5,7) - 0 x(5,7) + 1259 x(5,7) + 125.9 x(5,7) + 0.78 x(5,7) + 5.0 x(5,8) + 0.0 x(5,8) - 165789.0 x(5,8) - 206 x(5,8) - 0.0 x(5,8) - 12590 x(5,8) - 0 x(5,8) + 1259 x(5,8) + 125.9 x(5,8) + 0.27 x(5,8) + 5.0 x(5,9) + 0.0 x(5,9) - 165789.0 x(5,9) - 206 x(5,9) - 0.0 x(5,9) - 12710 x(5,9) - 550 x(5,9) + 127 x(5,9) + 127.1 x(5,9) + 0.0 x(5,9) + 5.0 x(5,10) + 0.0 x(5,10) - 165789.0 x(5,10) - 206 x(5,10) - 0.0 x(5,10) - 12771 x(5,10) - 0 x(5,10) + 0 x(5,10) + 127.71 x(5,10) + 0.99 x(5,10) + 3.6 x(6,1) + 0.0 x(6,1) - 104224.15500000001 x(6,1) - 133 x(6,1) - 0.0 x(6,1) - 6805 x(6,1) - 0 x(6,1) + 136 x(6,1) + 68.05 x(6,1) + 0.77 x(6,1) + 3.6 x(6,2) + 0.0 x(6,2) - 104224.15500000001 x(6,2) - 133 x(6,2) - 0.0 x(6,2) - 6969 x(6,2) - 770 x(6,2) + 0 x(6,2) + 69.69 x(6,2) + 0.8 x(6,2) + 3.6 x(6,3) + 0.0 x(6,3) - 104224.15500000001 x(6,3) - 133 x(6,3) - 0.0 x(6,3) - 7410 x(6,3) - 0 x(6,3) + 741 x(6,3) + 74.1 x(6,3) + 0.78 x(6,3) + 3.6 x(6,4) + 0.0 x(6,4) - 104224.15500000001 x(6,4) - 133 x(6,4) - 0.0 x(6,4) - 7700 x(6,4) - 700 x(6,4) + 77 x(6,4) + 77.0 x(6,4) + 0.87 x(6,4) + 3.6 x(6,5) + 0.0 x(6,5) - 104224.15500000001 x(6,5) - 133 x(6,5) - 0.0 x(6,5) - 8161 x(6,5) - 540 x(6,5) + 11 x(6,5) + 81.61 x(6,5) + 0.86 x(6,5) + 3.6 x(6,6) + 0.0 x(6,6) - 104224.15500000001 x(6,6) - 133 x(6,6) - 0.0 x(6,6) - 8525 x(6,6) - 825 x(6,6) + 0 x(6,6) + 85.25 x(6,6) + 1.0 x(6,6) + 3.6 x(6,7) + 0.0 x(6,7) - 104224.15500000001 x(6,7) - 133 x(6,7) - 0.0 x(6,7) - 8620 x(6,7) - 0 x(6,7) + 86 x(6,7) + 86.2 x(6,7) + 0.92 x(6,7) + 3.6 x(6,8) + 0.0 x(6,8) - 104224.15500000001 x(6,8) - 133 x(6,8) - 0.0 x(6,8) - 8639 x(6,8) - 530 x(6,8) + 0 x(6,8) + 0.0 x(6,8) + 1.0 x(6,8) + 3.6 x(6,9) + 0.0 x(6,9) - 104224.15500000001 x(6,9) - 133 x(6,9) - 0.0 x(6,9) - 8780 x(6,9) - 0 x(6,9) + 0 x(6,9) + 0.0 x(6,9) + 1.0 x(6,9) + 3.6 x(6,10) + 0.0 x(6,10) - 104224.15500000001 x(6,10) - 133 x(6,10) - 0.0 x(6,10) - 9116 x(6,10) - 530 x(6,10) + 0 x(6,10) + 91.16 x(6,10) + 1.0 x(6,10) + 3.99 x(7,1) + 0.0 x(7,1) - 119028.0 x(7,1) - 125 x(7,1) - 0.0 x(7,1) - 5430 x(7,1) - 0 x(7,1) + 543 x(7,1) + 54.3 x(7,1) + 0.78 x(7,1) + 3.99 x(7,2) + 0.0 x(7,2) - 119028.0 x(7,2) - 125 x(7,2) - 0.0 x(7,2) - 5430 x(7,2) - 0 x(7,2) + 543 x(7,2) + 54.3 x(7,2) + 0.27 x(7,2) + 3.99 x(7,3) + 0.0 x(7,3) - 119028.0 x(7,3) - 125 x(7,3) - 0.0 x(7,3) - 5431 x(7,3) - 0 x(7,3) + 0 x(7,3) + 54.31 x(7,3) + 0.41 x(7,3) + 3.99 x(7,4) + 0.0 x(7,4) - 119028.0 x(7,4) - 125 x(7,4) - 0.0 x(7,4) - 5431 x(7,4) - 550 x(7,4) + 0 x(7,4) + 0.0 x(7,4) + 1.0 x(7,4) + 3.99 x(7,5) + 0.0 x(7,5) - 119028.0 x(7,5) - 125 x(7,5) - 0.0 x(7,5) - 5431 x(7,5) - 600 x(7,5) + 54 x(7,5) + 54.31 x(7,5) + 0.0 x(7,5) + 3.99 x(7,6) + 0.0 x(7,6) - 119028.0 x(7,6) - 125 x(7,6) - 0.0 x(7,6) - 5486 x(7,6) - 550 x(7,6) + 54 x(7,6) + 54.86 x(7,6) + 0.0 x(7,6) + 3.99 x(7,7) + 0.0 x(7,7) - 119028.0 x(7,7) - 125 x(7,7) - 0.0 x(7,7) - 5693 x(7,7) - 0 x(7,7) + 0 x(7,7) + 56.93 x(7,7) + 0.9 x(7,7) + 3.99 x(7,8) + 0.0 x(7,8) - 119028.0 x(7,8) - 125 x(7,8) - 0.0 x(7,8) - 5732 x(7,8) - 0 x(7,8) + 0 x(7,8) + 57.32 x(7,8) + 1.0 x(7,8) + 3.99 x(7,9) + 0.0 x(7,9) - 119028.0 x(7,9) - 125 x(7,9) - 0.0 x(7,9) - 5763 x(7,9) - 0 x(7,9) + 0 x(7,9) + 57.63 x(7,9) + 0.6 x(7,9) + 3.99 x(7,10) + 0.0 x(7,10) - 119028.0 x(7,10) - 125 x(7,10) - 0.0 x(7,10) - 5764 x(7,10) - 540 x(7,10) + 570 x(7,10) + 57.64 x(7,10) + 0.33 x(7,10) + 3.97 x(8,1) + 0.0 x(8,1) - 203400.75 x(8,1) - 250 x(8,1) - 0.0 x(8,1) - 12500 x(8,1) - 0 x(8,1) + 0 x(8,1) + 0.0 x(8,1) + 0.0 x(8,1) + 3.97 x(8,2) + 0.0 x(8,2) - 203400.75 x(8,2) - 250 x(8,2) - 0.0 x(8,2) - 12680 x(8,2) - 0 x(8,2) + 0 x(8,2) + 126.8 x(8,2) + 0.95 x(8,2) + 3.97 x(8,3) + 0.0 x(8,3) - 203400.75 x(8,3) - 250 x(8,3) - 0.0 x(8,3) - 12680 x(8,3) - 0 x(8,3) + 0 x(8,3) + 126.8 x(8,3) + 0.92 x(8,3) + 3.97 x(8,4) + 0.0 x(8,4) - 203400.75 x(8,4) - 250 x(8,4) - 0.0 x(8,4) - 12680 x(8,4) - 0 x(8,4) + 0 x(8,4) + 126.8 x(8,4) + 0.83 x(8,4) + 3.97 x(8,5) + 0.0 x(8,5) - 203400.75 x(8,5) - 250 x(8,5) - 0.0 x(8,5) - 12680 x(8,5) - 0 x(8,5) + 0 x(8,5) + 126.8 x(8,5) + 1.0 x(8,5) + 3.97 x(8,6) + 0.0 x(8,6) - 203400.75 x(8,6) - 250 x(8,6) - 0.0 x(8,6) - 13579 x(8,6) - 0 x(8,6) + 0 x(8,6) + 135.79 x(8,6) + 0.9 x(8,6) + 3.97 x(8,7) + 0.0 x(8,7) - 203400.75 x(8,7) - 250 x(8,7) - 0.0 x(8,7) - 14052 x(8,7) - 0 x(8,7) + 0 x(8,7) + 0.0 x(8,7) + 1.0 x(8,7) + 3.97 x(8,8) + 0.0 x(8,8) - 203400.75 x(8,8) - 250 x(8,8) - 0.0 x(8,8) - 14053 x(8,8) - 540 x(8,8) + 14 x(8,8) + 140.53 x(8,8) + 0.86 x(8,8) + 3.97 x(8,9) + 0.0 x(8,9) - 203400.75 x(8,9) - 250 x(8,9) - 0.0 x(8,9) - 14163 x(8,9) - 0 x(8,9) + 0 x(8,9) + 141.63 x(8,9) + 0.9 x(8,9) + 3.97 x(8,10) + 0.0 x(8,10) - 203400.75 x(8,10) - 250 x(8,10) - 0.0 x(8,10) - 14163 x(8,10) - 0 x(8,10) + 0 x(8,10) + 141.63 x(8,10) + 1.0 x(8,10) + 4.31 x(9,1) + 0.0 x(9,1) - 104224.15500000001 x(9,1) - 133 x(9,1) - 0.0 x(9,1) - 5449 x(9,1) - 770 x(9,1) + 0 x(9,1) + 54.49 x(9,1) + 0.8 x(9,1) + 4.31 x(9,2) + 0.0 x(9,2) - 104224.15500000001 x(9,2) - 133 x(9,2) - 0.0 x(9,2) - 5470 x(9,2) - 0 x(9,2) + 547 x(9,2) + 54.7 x(9,2) + 0.78 x(9,2) + 4.31 x(9,3) + 0.0 x(9,3) - 104224.15500000001 x(9,3) - 133 x(9,3) - 0.0 x(9,3) - 5480 x(9,3) - 0 x(9,3) + 0 x(9,3) + 0.0 x(9,3) + 0.66 x(9,3) + 4.31 x(9,4) + 0.0 x(9,4) - 104224.15500000001 x(9,4) - 133 x(9,4) - 0.0 x(9,4) - 5480 x(9,4) - 0 x(9,4) + 0 x(9,4) + 54.8 x(9,4) + 1.0 x(9,4) + 4.31 x(9,5) + 0.0 x(9,5) - 104224.15500000001 x(9,5) - 133 x(9,5) - 0.0 x(9,5) - 5570 x(9,5) - 700 x(9,5) + 56 x(9,5) + 55.7 x(9,5) + 0.87 x(9,5) + 4.31 x(9,6) + 0.0 x(9,6) - 104224.15500000001 x(9,6) - 133 x(9,6) - 0.0 x(9,6) - 5990 x(9,6) - 0 x(9,6) + 59 x(9,6) + 59.9 x(9,6) + 0.92 x(9,6) + 4.31 x(9,7) + 0.0 x(9,7) - 104224.15500000001 x(9,7) - 133 x(9,7) - 0.0 x(9,7) - 6190 x(9,7) - 540 x(9,7) + 8 x(9,7) + 61.9 x(9,7) + 0.86 x(9,7) + 4.31 x(9,8) + 0.0 x(9,8) - 104224.15500000001 x(9,8) - 133 x(9,8) - 0.0 x(9,8) - 6220 x(9,8) - 530 x(9,8) + 0 x(9,8) + 0.0 x(9,8) + 1.0 x(9,8) + 4.31 x(9,9) + 0.0 x(9,9) - 104224.15500000001 x(9,9) - 133 x(9,9) - 0.0 x(9,9) - 6325 x(9,9) - 825 x(9,9) + 0 x(9,9) + 63.25 x(9,9) + 1.0 x(9,9) + 4.31 x(9,10) + 0.0 x(9,10) - 104224.15500000001 x(9,10) - 133 x(9,10) - 0.0 x(9,10) - 6563 x(9,10) - 530 x(9,10) + 0 x(9,10) + 65.63 x(9,10) + 1.0 x(9,10) + 5.0 x(10,1) + 0.0 x(10,1) - 170430.0 x(10,1) - 225 x(10,1) - 0.0 x(10,1) - 15580 x(10,1) - 0 x(10,1) + 156 x(10,1) + 155.8 x(10,1) + 0.77 x(10,1) + 5.0 x(10,2) + 0.0 x(10,2) - 170430.0 x(10,2) - 225 x(10,2) - 0.0 x(10,2) - 21978 x(10,2) - 0 x(10,2) + 2198 x(10,2) + 219.78 x(10,2) + 0.8 x(10,2) + 5.0 x(10,3) + 0.0 x(10,3) - 170430.0 x(10,3) - 225 x(10,3) - 0.0 x(10,3) - 21978 x(10,3) - 0 x(10,3) + 2198 x(10,3) + 219.78 x(10,3) + 0.75 x(10,3) + 5.0 x(10,4) + 0.0 x(10,4) - 170430.0 x(10,4) - 225 x(10,4) - 0.0 x(10,4) - 21978 x(10,4) - 0 x(10,4) + 2198 x(10,4) + 219.78 x(10,4) + 0.56 x(10,4) + 5.0 x(10,5) + 0.0 x(10,5) - 170430.0 x(10,5) - 225 x(10,5) - 0.0 x(10,5) - 21978 x(10,5) - 540 x(10,5) + 219 x(10,5) + 219.78 x(10,5) + 0.0 x(10,5) + 5.0 x(10,6) + 0.0 x(10,6) - 170430.0 x(10,6) - 225 x(10,6) - 0.0 x(10,6) - 21978 x(10,6) - 0 x(10,6) + 2190 x(10,6) + 219.78 x(10,6) + 1.0 x(10,6) + 5.0 x(10,7) + 0.0 x(10,7) - 170430.0 x(10,7) - 225 x(10,7) - 0.0 x(10,7) - 21978 x(10,7) - 0 x(10,7) + 219 x(10,7) + 219.78 x(10,7) + 0.0 x(10,7) + 3.72 x(11,1) + 0.0 x(11,1) - 103155.0 x(11,1) - 152 x(11,1) - 0.0 x(11,1) - 4880 x(11,1) - 0 x(11,1) + 0 x(11,1) + 48.8 x(11,1) + 0.83 x(11,1) + 4.77 x(12,1) + 0.0 x(12,1) - 168463.96000000002 x(12,1) - 185 x(12,1) - 0.0 x(12,1) - 7880 x(12,1) - 0 x(12,1) + 0 x(12,1) + 78.8 x(12,1) + 0.91 x(12,1) + 4.77 x(12,2) + 0.0 x(12,2) - 168463.96000000002 x(12,2) - 185 x(12,2) - 0.0 x(12,2) - 8200 x(12,2) - 740 x(12,2) + 82 x(12,2) + 82.0 x(12,2) + 0.0 x(12,2) + 4.77 x(12,3) + 0.0 x(12,3) - 168463.96000000002 x(12,3) - 185 x(12,3) - 0.0 x(12,3) - 8280 x(12,3) - 0 x(12,3) + 82 x(12,3) + 82.8 x(12,3) + 1.0 x(12,3) + 4.77 x(12,4) + 0.0 x(12,4) - 168463.96000000002 x(12,4) - 185 x(12,4) - 0.0 x(12,4) - 8280 x(12,4) - 518 x(12,4) + 82 x(12,4) + 82.8 x(12,4) + 0.0 x(12,4) + 4.77 x(12,5) + 0.0 x(12,5) - 168463.96000000002 x(12,5) - 185 x(12,5) - 0.0 x(12,5) - 8280 x(12,5) - 0 x(12,5) + 82 x(12,5) + 82.8 x(12,5) + 0.0 x(12,5) + 4.77 x(12,6) + 0.0 x(12,6) - 168463.96000000002 x(12,6) - 185 x(12,6) - 0.0 x(12,6) - 8580 x(12,6) - 0 x(12,6) + 0 x(12,6) + 85.8 x(12,6) + 0.95 x(12,6) + 4.77 x(12,7) + 0.0 x(12,7) - 168463.96000000002 x(12,7) - 185 x(12,7) - 0.0 x(12,7) - 12876 x(12,7) - 0 x(12,7) + 0 x(12,7) + 128.76 x(12,7) + 0.83 x(12,7) + 4.77 x(12,8) + 0.0 x(12,8) - 168463.96000000002 x(12,8) - 185 x(12,8) - 0.0 x(12,8) - 12876 x(12,8) - 600 x(12,8) + 0 x(12,8) + 0.0 x(12,8) + 0.94 x(12,8) + 4.77 x(12,9) + 0.0 x(12,9) - 168463.96000000002 x(12,9) - 185 x(12,9) - 0.0 x(12,9) - 13340 x(12,9) - 600 x(12,9) + 0 x(12,9) + 133.4 x(12,9) + 0.0 x(12,9) + 4.77 x(12,10) + 0.0 x(12,10) - 168463.96000000002 x(12,10) - 185 x(12,10) - 0.0 x(12,10) - 13680 x(12,10) - 0 x(12,10) + 136 x(12,10) + 136.8 x(12,10) + 0.92 x(12,10) + 3.0 x(13,1) + 0.0 x(13,1) - 203400.75 x(13,1) - 250 x(13,1) - 0.0 x(13,1) - 15800 x(13,1) - 0 x(13,1) + 0 x(13,1) + 158.0 x(13,1) + 0.88 x(13,1) + 3.0 x(13,2) + 0.0 x(13,2) - 203400.75 x(13,2) - 250 x(13,2) - 0.0 x(13,2) - 16040 x(13,2) - 0 x(13,2) + 0 x(13,2) + 160.4 x(13,2) + 0.9 x(13,2) + 3.0 x(13,3) + 0.0 x(13,3) - 203400.75 x(13,3) - 250 x(13,3) - 0.0 x(13,3) - 16040 x(13,3) - 0 x(13,3) + 0 x(13,3) + 160.4 x(13,3) + 1.0 x(13,3) + 3.0 x(13,4) + 0.0 x(13,4) - 203400.75 x(13,4) - 250 x(13,4) - 0.0 x(13,4) - 16040 x(13,4) - 0 x(13,4) + 0 x(13,4) + 0.0 x(13,4) + 1.0 x(13,4) + 3.0 x(13,5) + 0.0 x(13,5) - 203400.75 x(13,5) - 250 x(13,5) - 0.0 x(13,5) - 16200 x(13,5) - 0 x(13,5) + 162 x(13,5) + 162.0 x(13,5) + 0.77 x(13,5) + 3.0 x(13,6) + 0.0 x(13,6) - 203400.75 x(13,6) - 250 x(13,6) - 0.0 x(13,6) - 16201 x(13,6) - 550 x(13,6) + 162 x(13,6) + 162.01 x(13,6) + 0.0 x(13,6) + 3.0 x(13,7) + 0.0 x(13,7) - 203400.75 x(13,7) - 250 x(13,7) - 0.0 x(13,7) - 16500 x(13,7) - 0 x(13,7) + 0 x(13,7) + 165.0 x(13,7) + 1.0 x(13,7) + 3.0 x(13,8) + 0.0 x(13,8) - 203400.75 x(13,8) - 250 x(13,8) - 0.0 x(13,8) - 16502 x(13,8) - 0 x(13,8) + 0 x(13,8) + 0.0 x(13,8) + 1.0 x(13,8) + 3.0 x(13,9) + 0.0 x(13,9) - 203400.75 x(13,9) - 250 x(13,9) - 0.0 x(13,9) - 16503 x(13,9) - 540 x(13,9) + 14 x(13,9) + 165.03 x(13,9) + 0.86 x(13,9) + 3.0 x(13,10) + 0.0 x(13,10) - 203400.75 x(13,10) - 250 x(13,10) - 0.0 x(13,10) - 16567 x(13,10) - 0 x(13,10) + 0 x(13,10) + 165.67 x(13,10) + 0.95 x(13,10) + 4.1 x(14,1) + 0.0 x(14,1) - 171112.5 x(14,1) - 240 x(14,1) - 0.0 x(14,1) - 8698 x(14,1) - 540 x(14,1) + 11 x(14,1) + 86.98 x(14,1) + 0.86 x(14,1) + 4.1 x(14,2) + 0.0 x(14,2) - 171112.5 x(14,2) - 240 x(14,2) - 0.0 x(14,2) - 8741 x(14,2) - 600 x(14,2) + 0 x(14,2) + 87.41 x(14,2) + 0.94 x(14,2) + 4.1 x(14,3) + 0.0 x(14,3) - 171112.5 x(14,3) - 240 x(14,3) - 0.0 x(14,3) - 8838 x(14,3) - 600 x(14,3) + 0 x(14,3) + 0.0 x(14,3) + 0.93 x(14,3) + 4.1 x(14,4) + 0.0 x(14,4) - 171112.5 x(14,4) - 240 x(14,4) - 0.0 x(14,4) - 8839 x(14,4) - 540 x(14,4) + 88 x(14,4) + 88.39 x(14,4) + 1.0 x(14,4) + 4.1 x(14,5) + 0.0 x(14,5) - 171112.5 x(14,5) - 240 x(14,5) - 0.0 x(14,5) - 8839 x(14,5) - 540 x(14,5) + 88 x(14,5) + 88.39 x(14,5) + 0.0 x(14,5) + 4.1 x(14,6) + 0.0 x(14,6) - 171112.5 x(14,6) - 240 x(14,6) - 0.0 x(14,6) - 8839 x(14,6) - 540 x(14,6) + 88 x(14,6) + 88.39 x(14,6) + 0.0 x(14,6) + 4.1 x(14,7) + 0.0 x(14,7) - 171112.5 x(14,7) - 240 x(14,7) - 0.0 x(14,7) - 8980 x(14,7) - 0 x(14,7) + 0 x(14,7) + 0.0 x(14,7) + 1.0 x(14,7) + 4.1 x(14,8) + 0.0 x(14,8) - 171112.5 x(14,8) - 240 x(14,8) - 0.0 x(14,8) - 8980 x(14,8) - 0 x(14,8) + 0 x(14,8) + 89.8 x(14,8) + 1.0 x(14,8) + 4.1 x(14,9) + 0.0 x(14,9) - 171112.5 x(14,9) - 240 x(14,9) - 0.0 x(14,9) - 9266 x(14,9) - 0 x(14,9) + 0 x(14,9) + 92.66 x(14,9) + 1.0 x(14,9) + 4.1 x(14,10) + 0.0 x(14,10) - 171112.5 x(14,10) - 240 x(14,10) - 0.0 x(14,10) - 9280 x(14,10) - 0 x(14,10) + 0 x(14,10) + 0.0 x(14,10) + 1.0 x(14,10) + 4.36 x(15,1) + 5.0 x(15,1) - 192074.40000000002 x(15,1) - 230 x(15,1) - 0.0 x(15,1) - 10980 x(15,1) - 0 x(15,1) + 110 x(15,1) + 109.8 x(15,1) + 0.77 x(15,1) + 0.0 x(16,1) + 5.0 x(16,1) - 194103.0 x(16,1) - 240 x(16,1) - 4.5 x(16,1) - 29800 x(16,1) - 0 x(16,1) + 0 x(16,1) + 298.0 x(16,1) + 1.0 x(16,1) + 0.0 x(17,1) + 5.0 x(17,1) - 194103.0 x(17,1) - 240 x(17,1) - 4.5 x(17,1) - 39800 x(17,1) - 0 x(17,1) + 0 x(17,1) + 398.0 x(17,1) + 1.0 x(17,1) + 0.0 x(18,1) + 5.0 x(18,1) - 239200.0 x(18,1) - 270 x(18,1) - 0.0 x(18,1) - 21041 x(18,1) - 0 x(18,1) + 0 x(18,1) + 210.41 x(18,1) + 0.85 x(18,1) + 0.0 x(18,2) + 5.0 x(18,2) - 239200.0 x(18,2) - 270 x(18,2) - 0.0 x(18,2) - 21780 x(18,2) - 0 x(18,2) + 2178 x(18,2) + 217.8 x(18,2) + 0.78 x(18,2) + 0.0 x(18,3) + 5.0 x(18,3) - 239200.0 x(18,3) - 270 x(18,3) - 0.0 x(18,3) - 21780 x(18,3) - 0 x(18,3) + 2178 x(18,3) + 217.8 x(18,3) + 0.84 x(18,3) + 0.0 x(18,4) + 5.0 x(18,4) - 239200.0 x(18,4) - 270 x(18,4) - 0.0 x(18,4) - 21780 x(18,4) - 0 x(18,4) + 2178 x(18,4) + 217.8 x(18,4) + 0.75 x(18,4) + 0.0 x(18,5) + 5.0 x(18,5) - 239200.0 x(18,5) - 270 x(18,5) - 0.0 x(18,5) - 21780 x(18,5) - 0 x(18,5) + 0 x(18,5) + 217.8 x(18,5) + 0.66 x(18,5) + 0.0 x(18,6) + 5.0 x(18,6) - 239200.0 x(18,6) - 270 x(18,6) - 0.0 x(18,6) - 21780 x(18,6) - 0 x(18,6) + 2396 x(18,6) + 217.8 x(18,6) + 0.27 x(18,6) + 0.0 x(18,7) + 5.0 x(18,7) - 239200.0 x(18,7) - 270 x(18,7) - 0.0 x(18,7) - 21780 x(18,7) - 0 x(18,7) + 2178 x(18,7) + 217.8 x(18,7) + 0.56 x(18,7) + 0.0 x(18,8) + 5.0 x(18,8) - 239200.0 x(18,8) - 270 x(18,8) - 0.0 x(18,8) - 21780 x(18,8) - 540 x(18,8) + 217 x(18,8) + 217.8 x(18,8) + 0.0 x(18,8) + 0.0 x(18,9) + 5.0 x(18,9) - 239200.0 x(18,9) - 270 x(18,9) - 0.0 x(18,9) - 21780 x(18,9) - 0 x(18,9) + 217 x(18,9) + 217.8 x(18,9) + 1.0 x(18,9) + 5.0 x(19,1) + 0.14 x(19,1) - 348480.0 x(19,1) - 349 x(19,1) - 0.0 x(19,1) - 18636 x(19,1) - 0 x(19,1) + 186 x(19,1) + 186.36 x(19,1) + 0.77 x(19,1) + 5.0 x(19,2) + 0.14 x(19,2) - 348480.0 x(19,2) - 349 x(19,2) - 0.0 x(19,2) - 19800 x(19,2) - 0 x(19,2) + 0 x(19,2) + 198.0 x(19,2) + 0.0 x(19,2) + 5.0 x(19,3) + 0.14 x(19,3) - 348480.0 x(19,3) - 349 x(19,3) - 0.0 x(19,3) - 20100 x(19,3) - 0 x(19,3) + 0 x(19,3) + 201.0 x(19,3) + 0.92 x(19,3) + 5.0 x(19,4) + 0.14 x(19,4) - 348480.0 x(19,4) - 349 x(19,4) - 0.0 x(19,4) - 20500 x(19,4) - 0 x(19,4) + 2050 x(19,4) + 205.0 x(19,4) + 0.78 x(19,4) + 5.0 x(19,5) + 0.14 x(19,5) - 348480.0 x(19,5) - 349 x(19,5) - 0.0 x(19,5) - 20500 x(19,5) - 0 x(19,5) + 2050 x(19,5) + 205.0 x(19,5) + 0.6 x(19,5) + 5.0 x(19,6) + 0.14 x(19,6) - 348480.0 x(19,6) - 349 x(19,6) - 0.0 x(19,6) - 20500 x(19,6) - 0 x(19,6) + 2050 x(19,6) + 205.0 x(19,6) + 0.84 x(19,6) + 5.0 x(19,7) + 0.14 x(19,7) - 348480.0 x(19,7) - 349 x(19,7) - 0.0 x(19,7) - 20500 x(19,7) - 0 x(19,7) + 2050 x(19,7) + 205.0 x(19,7) + 0.75 x(19,7) + 5.0 x(19,8) + 0.14 x(19,8) - 348480.0 x(19,8) - 349 x(19,8) - 0.0 x(19,8) - 20500 x(19,8) - 0 x(19,8) + 2050 x(19,8) + 205.0 x(19,8) + 0.56 x(19,8) + 5.0 x(19,9) + 0.14 x(19,9) - 348480.0 x(19,9) - 349 x(19,9) - 0.0 x(19,9) - 20500 x(19,9) - 540 x(19,9) + 205 x(19,9) + 205.0 x(19,9) + 0.0 x(19,9) + 5.0 x(19,10) + 0.14 x(19,10) - 348480.0 x(19,10) - 349 x(19,10) - 0.0 x(19,10) - 20500 x(19,10) - 0 x(19,10) + 205 x(19,10) + 205.0 x(19,10) + 1.0 x(19,10) + 4.48 x(20,1) + 0.0 x(20,1) - 171112.5 x(20,1) - 240 x(20,1) - 0.0 x(20,1) - 11330 x(20,1) - 0 x(20,1) + 0 x(20,1) + 113.3 x(20,1) + 0.95 x(20,1) + 4.48 x(20,2) + 0.0 x(20,2) - 171112.5 x(20,2) - 240 x(20,2) - 0.0 x(20,2) - 11330 x(20,2) - 0 x(20,2) + 0 x(20,2) + 113.3 x(20,2) + 0.83 x(20,2) + 4.48 x(20,3) + 0.0 x(20,3) - 171112.5 x(20,3) - 240 x(20,3) - 0.0 x(20,3) - 11330 x(20,3) - 0 x(20,3) + 0 x(20,3) + 113.3 x(20,3) + 0.9 x(20,3) + 4.48 x(20,4) + 0.0 x(20,4) - 171112.5 x(20,4) - 240 x(20,4) - 0.0 x(20,4) - 11330 x(20,4) - 0 x(20,4) + 0 x(20,4) + 113.3 x(20,4) + 1.0 x(20,4) + 4.48 x(20,5) + 0.0 x(20,5) - 171112.5 x(20,5) - 240 x(20,5) - 0.0 x(20,5) - 11330 x(20,5) - 0 x(20,5) + 0 x(20,5) + 0.0 x(20,5) + 1.0 x(20,5) + 4.48 x(20,6) + 0.0 x(20,6) - 171112.5 x(20,6) - 240 x(20,6) - 0.0 x(20,6) - 11444 x(20,6) - 0 x(20,6) + 114 x(20,6) + 114.44 x(20,6) + 0.77 x(20,6) + 4.48 x(20,7) + 0.0 x(20,7) - 171112.5 x(20,7) - 240 x(20,7) - 0.0 x(20,7) - 11444 x(20,7) - 0 x(20,7) + 115 x(20,7) + 114.44 x(20,7) + 0.6 x(20,7) + 4.48 x(20,8) + 0.0 x(20,8) - 171112.5 x(20,8) - 240 x(20,8) - 0.0 x(20,8) - 11444 x(20,8) - 0 x(20,8) + 0 x(20,8) + 114.44 x(20,8) + 0.41 x(20,8) + 4.48 x(20,9) + 0.0 x(20,9) - 171112.5 x(20,9) - 240 x(20,9) - 0.0 x(20,9) - 11444 x(20,9) - 550 x(20,9) + 114 x(20,9) + 114.44 x(20,9) + 0.0 x(20,9) + 4.48 x(20,10) + 0.0 x(20,10) - 171112.5 x(20,10) - 240 x(20,10) - 0.0 x(20,10) - 11601 x(20,10) - 0 x(20,10) + 0 x(20,10) + 0.0 x(20,10) + 1.0 x(20,10)
subject to
c1: x(1,1) + x(1,2) + x(1,3) + x(1,4) + x(1,5) + x(1,6) + x(1,7) + x(1,8) + x(1,9) + x(1,10) + x(2,1) + x(3,1) + x(4,1) + x(4,2) + x(4,3) + x(5,1) + x(5,2) + x(5,3) + x(5,4) + x(5,5) + x(5,6) + x(5,7) + x(5,8) + x(5,9) + x(5,10) + x(6,1) + x(6,2) + x(6,3) + x(6,4) + x(6,5) + x(6,6) + x(6,7) + x(6,8) + x(6,9) + x(6,10) + x(7,1) + x(7,2) + x(7,3) + x(7,4) + x(7,5) + x(7,6) + x(7,7) + x(7,8) + x(7,9) + x(7,10) + x(8,1) + x(8,2) + x(8,3) + x(8,4) + x(8,5) + x(8,6) + x(8,7) + x(8,8) + x(8,9) + x(8,10) + x(9,1) + x(9,2) + x(9,3) + x(9,4) + x(9,5) + x(9,6) + x(9,7) + x(9,8) + x(9,9) + x(9,10) + x(10,1) + x(10,2) + x(10,3) + x(10,4) + x(10,5) + x(10,6) + x(10,7) + x(11,1) + x(12,1) + x(12,2) + x(12,3) + x(12,4) + x(12,5) + x(12,6) + x(12,7) + x(12,8) + x(12,9) + x(12,10) + x(13,1) + x(13,2) + x(13,3) + x(13,4) + x(13,5) + x(13,6) + x(13,7) + x(13,8) + x(13,9) + x(13,10) + x(14,1) + x(14,2) + x(14,3) + x(14,4) + x(14,5) + x(14,6) + x(14,7) + x(14,8) + x(14,9) + x(14,10) + x(15,1) + x(16,1) + x(17,1) + x(18,1) + x(18,2) + x(18,3) + x(18,4) + x(18,5) + x(18,6) + x(18,7) + x(18,8) + x(18,9) + x(19,1) + x(19,2) + x(19,3) + x(19,4) + x(19,5) + x(19,6) + x(19,7) + x(19,8) + x(19,9) + x(19,10) + x(20,1) + x(20,2) + x(20,3) + x(20,4) + x(20,5) + x(20,6) + x(20,7) + x(20,8) + x(20,9) + x(20,10) >= 1
c2: 1000 x(1,1) + 1000 x(1,2) + 1000 x(1,3) + 1000 x(1,4) + 1000 x(1,5) + 1000 x(1,6) + 1000 x(1,7) + 1000 x(1,8) + 1000 x(1,9) + 1000 x(1,10) + 2000 x(2,1) + 4000 x(3,1) + 2000 x(4,1) + 2000 x(4,2) + 2000 x(4,3) + 4000 x(5,1) + 4000 x(5,2) + 4000 x(5,3) + 4000 x(5,4) + 4000 x(5,5) + 4000 x(5,6) + 4000 x(5,7) + 4000 x(5,8) + 4000 x(5,9) + 4000 x(5,10) + 2000 x(6,1) + 2000 x(6,2) + 2000 x(6,3) + 2000 x(6,4) + 2000 x(6,5) + 2000 x(6,6) + 2000 x(6,7) + 2000 x(6,8) + 2000 x(6,9) + 2000 x(6,10) + 1000 x(7,1) + 1000 x(7,2) + 1000 x(7,3) + 1000 x(7,4) + 1000 x(7,5) + 1000 x(7,6) + 1000 x(7,7) + 1000 x(7,8) + 1000 x(7,9) + 1000 x(7,10) + 4000 x(8,1) + 4000 x(8,2) + 4000 x(8,3) + 4000 x(8,4) + 4000 x(8,5) + 4000 x(8,6) + 4000 x(8,7) + 4000 x(8,8) + 4000 x(8,9) + 4000 x(8,10) + 1000 x(9,1) + 1000 x(9,2) + 1000 x(9,3) + 1000 x(9,4) + 1000 x(9,5) + 1000 x(9,6) + 1000 x(9,7) + 1000 x(9,8) + 1000 x(9,9) + 1000 x(9,10) + 5000 x(10,1) + 5000 x(10,2) + 5000 x(10,3) + 5000 x(10,4) + 5000 x(10,5) + 5000 x(10,6) + 5000 x(10,7) + 1000 x(11,1) + 2000 x(12,1) + 2000 x(12,2) + 2000 x(12,3) + 2000 x(12,4) + 2000 x(12,5) + 2000 x(12,6) + 2000 x(12,7) + 2000 x(12,8) + 2000 x(12,9) + 2000 x(12,10) + 5000 x(13,1) + 5000 x(13,2) + 5000 x(13,3) + 5000 x(13,4) + 5000 x(13,5) + 5000 x(13,6) + 5000 x(13,7) + 5000 x(13,8) + 5000 x(13,9) + 5000 x(13,10) + 2000 x(14,1) + 2000 x(14,2) + 2000 x(14,3) + 2000 x(14,4) + 2000 x(14,5) + 2000 x(14,6) + 2000 x(14,7) + 2000 x(14,8) + 2000 x(14,9) + 2000 x(14,10) + 3000 x(15,1) + 4000 x(16,1) + 5000 x(17,1) + 4000 x(18,1) + 4000 x(18,2) + 4000 x(18,3) + 4000 x(18,4) + 4000 x(18,5) + 4000 x(18,6) + 4000 x(18,7) + 4000 x(18,8) + 4000 x(18,9) + 4000 x(19,1) + 4000 x(19,2) + 4000 x(19,3) + 4000 x(19,4) + 4000 x(19,5) + 4000 x(19,6) + 4000 x(19,7) + 4000 x(19,8) + 4000 x(19,9) + 4000 x(19,10) + 2000 x(20,1) + 2000 x(20,2) + 2000 x(20,3) + 2000 x(20,4) + 2000 x(20,5) + 2000 x(20,6) + 2000 x(20,7) + 2000 x(20,8) + 2000 x(20,9) + 2000 x(20,10) >= 6000
c3: 5435 x(1,1) + 5435 x(1,2) + 5435 x(1,3) + 5435 x(1,4) + 5435 x(1,5) + 5538 x(1,6) + 5841 x(1,7) + 5877 x(1,8) + 6040 x(1,9) + 6040 x(1,10) + 7980 x(2,1) + 11980 x(3,1) + 7180 x(4,1) + 9580 x(4,2) + 10538 x(4,3) + 12582 x(5,1) + 12582 x(5,2) + 12582 x(5,3) + 12582 x(5,4) + 12582 x(5,5) + 12582 x(5,6) + 12590 x(5,7) + 12590 x(5,8) + 12710 x(5,9) + 12771 x(5,10) + 6805 x(6,1) + 6969 x(6,2) + 7410 x(6,3) + 7700 x(6,4) + 8161 x(6,5) + 8525 x(6,6) + 8620 x(6,7) + 8639 x(6,8) + 8780 x(6,9) + 9116 x(6,10) + 5430 x(7,1) + 5430 x(7,2) + 5431 x(7,3) + 5431 x(7,4) + 5431 x(7,5) + 5486 x(7,6) + 5693 x(7,7) + 5732 x(7,8) + 5763 x(7,9) + 5764 x(7,10) + 12500 x(8,1) + 12680 x(8,2) + 12680 x(8,3) + 12680 x(8,4) + 12680 x(8,5) + 13579 x(8,6) + 14052 x(8,7) + 14053 x(8,8) + 14163 x(8,9) + 14163 x(8,10) + 5449 x(9,1) + 5470 x(9,2) + 5480 x(9,3) + 5480 x(9,4) + 5570 x(9,5) + 5990 x(9,6) + 6190 x(9,7) + 6220 x(9,8) + 6325 x(9,9) + 6563 x(9,10) + 15580 x(10,1) + 21978 x(10,2) + 21978 x(10,3) + 21978 x(10,4) + 21978 x(10,5) + 21978 x(10,6) + 21978 x(10,7) + 4880 x(11,1) + 7880 x(12,1) + 8200 x(12,2) + 8280 x(12,3) + 8280 x(12,4) + 8280 x(12,5) + 8580 x(12,6) + 12876 x(12,7) + 12876 x(12,8) + 13340 x(12,9) + 13680 x(12,10) + 15800 x(13,1) + 16040 x(13,2) + 16040 x(13,3) + 16040 x(13,4) + 16200 x(13,5) + 16201 x(13,6) + 16500 x(13,7) + 16502 x(13,8) + 16503 x(13,9) + 16567 x(13,10) + 8698 x(14,1) + 8741 x(14,2) + 8838 x(14,3) + 8839 x(14,4) + 8839 x(14,5) + 8839 x(14,6) + 8980 x(14,7) + 8980 x(14,8) + 9266 x(14,9) + 9280 x(14,10) + 10980 x(15,1) + 29800 x(16,1) + 39800 x(17,1) + 21041 x(18,1) + 21780 x(18,2) + 21780 x(18,3) + 21780 x(18,4) + 21780 x(18,5) + 21780 x(18,6) + 21780 x(18,7) + 21780 x(18,8) + 21780 x(18,9) + 18636 x(19,1) + 19800 x(19,2) + 20100 x(19,3) + 20500 x(19,4) + 20500 x(19,5) + 20500 x(19,6) + 20500 x(19,7) + 20500 x(19,8) + 20500 x(19,9) + 20500 x(19,10) + 11330 x(20,1) + 11330 x(20,2) + 11330 x(20,3) + 11330 x(20,4) + 11330 x(20,5) + 11444 x(20,6) + 11444 x(20,7) + 11444 x(20,8) + 11444 x(20,9) + 11601 x(20,10) <= 30000
c4: x(1,1) + x(1,2) + x(1,3) + x(1,4) + x(1,5) + x(1,6) + x(1,7) + x(1,8) + x(1,9) + x(1,10) <= 1
c5: x(2,1) <= 1
c6: x(3,1) <= 1
c7: x(4,1) + x(4,2) + x(4,3) <= 1
c8: x(5,1) + x(5,2) + x(5,3) + x(5,4) + x(5,5) + x(5,6) + x(5,7) + x(5,8) + x(5,9) + x(5,10) <= 1
c9: x(6,1) + x(6,2) + x(6,3) + x(6,4) + x(6,5) + x(6,6) + x(6,7) + x(6,8) + x(6,9) + x(6,10) <= 1
c10: x(7,1) + x(7,2) + x(7,3) + x(7,4) + x(7,5) + x(7,6) + x(7,7) + x(7,8) + x(7,9) + x(7,10) <= 1
c11: x(8,1) + x(8,2) + x(8,3) + x(8,4) + x(8,5) + x(8,6) + x(8,7) + x(8,8) + x(8,9) + x(8,10) <= 1
c12: x(9,1) + x(9,2) + x(9,3) + x(9,4) + x(9,5) + x(9,6) + x(9,7) + x(9,8) + x(9,9) + x(9,10) <= 1
c13: x(10,1) + x(10,2) + x(10,3) + x(10,4) + x(10,5) + x(10,6) + x(10,7) <= 1
c14: x(11,1) <= 1
c15: x(12,1) + x(12,2) + x(12,3) + x(12,4) + x(12,5) + x(12,6) + x(12,7) + x(12,8) + x(12,9) + x(12,10) <= 1
c16: x(13,1) + x(13,2) + x(13,3) + x(13,4) + x(13,5) + x(13,6) + x(13,7) + x(13,8) + x(13,9) + x(13,10) <= 1
c17: x(14,1) + x(14,2) + x(14,3) + x(14,4) + x(14,5) + x(14,6) + x(14,7) + x(14,8) + x(14,9) + x(14,10) <= 1
c18: x(15,1) <= 1
c19: x(16,1) <= 1
c20: x(17,1) <= 1
c21: x(18,1) + x(18,2) + x(18,3) + x(18,4) + x(18,5) + x(18,6) + x(18,7) + x(18,8) + x(18,9) <= 1
c22: x(19,1) + x(19,2) + x(19,3) + x(19,4) + x(19,5) + x(19,6) + x(19,7) + x(19,8) + x(19,9) + x(19,10) <= 1
c23: x(20,1) + x(20,2) + x(20,3) + x(20,4) + x(20,5) + x(20,6) + x(20,7) + x(20,8) + x(20,9) + x(20,10) <= 1
c24: 1000 x(1,1) - 500 x(1,1) >= 0
c25: 1000 x(1,2) - 500 x(1,2) >= 0
c26: 1000 x(1,3) - 500 x(1,3) >= 0
c27: 1000 x(1,4) - 500 x(1,4) >= 0
c28: 1000 x(1,5) - 500 x(1,5) >= 0
c29: 1000 x(1,6) - 500 x(1,6) >= 0
c30: 1000 x(1,7) - 500 x(1,7) >= 0
c31: 1000 x(1,8) - 500 x(1,8) >= 0
c32: 1000 x(1,9) - 500 x(1,9) >= 0
c33: 1000 x(1,10) - 500 x(1,10) >= 0
c34: 2000 x(2,1) - 500 x(2,1) >= 0
c35: 4000 x(3,1) - 500 x(3,1) >= 0
c36: 2000 x(4,1) - 500 x(4,1) >= 0
c37: 2000 x(4,2) - 500 x(4,2) >= 0
c38: 2000 x(4,3) - 500 x(4,3) >= 0
c39: 4000 x(5,1) - 500 x(5,1) >= 0
c40: 4000 x(5,2) - 500 x(5,2) >= 0
c41: 4000 x(5,3) - 500 x(5,3) >= 0
c42: 4000 x(5,4) - 500 x(5,4) >= 0
c43: 4000 x(5,5) - 500 x(5,5) >= 0
c44: 4000 x(5,6) - 500 x(5,6) >= 0
c45: 4000 x(5,7) - 500 x(5,7) >= 0
c46: 4000 x(5,8) - 500 x(5,8) >= 0
c47: 4000 x(5,9) - 500 x(5,9) >= 0
c48: 4000 x(5,10) - 500 x(5,10) >= 0
c49: 2000 x(6,1) - 500 x(6,1) >= 0
c50: 2000 x(6,2) - 500 x(6,2) >= 0
c51: 2000 x(6,3) - 500 x(6,3) >= 0
c52: 2000 x(6,4) - 500 x(6,4) >= 0
c53: 2000 x(6,5) - 500 x(6,5) >= 0
c54: 2000 x(6,6) - 500 x(6,6) >= 0
c55: 2000 x(6,7) - 500 x(6,7) >= 0
c56: 2000 x(6,8) - 500 x(6,8) >= 0
c57: 2000 x(6,9) - 500 x(6,9) >= 0
c58: 2000 x(6,10) - 500 x(6,10) >= 0
c59: 1000 x(7,1) - 500 x(7,1) >= 0
c60: 1000 x(7,2) - 500 x(7,2) >= 0
c61: 1000 x(7,3) - 500 x(7,3) >= 0
c62: 1000 x(7,4) - 500 x(7,4) >= 0
c63: 1000 x(7,5) - 500 x(7,5) >= 0
c64: 1000 x(7,6) - 500 x(7,6) >= 0
c65: 1000 x(7,7) - 500 x(7,7) >= 0
c66: 1000 x(7,8) - 500 x(7,8) >= 0
c67: 1000 x(7,9) - 500 x(7,9) >= 0
c68: 1000 x(7,10) - 500 x(7,10) >= 0
c69: 4000 x(8,1) - 500 x(8,1) >= 0
c70: 4000 x(8,2) - 500 x(8,2) >= 0
c71: 4000 x(8,3) - 500 x(8,3) >= 0
c72: 4000 x(8,4) - 500 x(8,4) >= 0
c73: 4000 x(8,5) - 500 x(8,5) >= 0
c74: 4000 x(8,6) - 500 x(8,6) >= 0
c75: 4000 x(8,7) - 500 x(8,7) >= 0
c76: 4000 x(8,8) - 500 x(8,8) >= 0
c77: 4000 x(8,9) - 500 x(8,9) >= 0
c78: 4000 x(8,10) - 500 x(8,10) >= 0
c79: 1000 x(9,1) - 500 x(9,1) >= 0
c80: 1000 x(9,2) - 500 x(9,2) >= 0
c81: 1000 x(9,3) - 500 x(9,3) >= 0
c82: 1000 x(9,4) - 500 x(9,4) >= 0
c83: 1000 x(9,5) - 500 x(9,5) >= 0
c84: 1000 x(9,6) - 500 x(9,6) >= 0
c85: 1000 x(9,7) - 500 x(9,7) >= 0
c86: 1000 x(9,8) - 500 x(9,8) >= 0
c87: 1000 x(9,9) - 500 x(9,9) >= 0
c88: 1000 x(9,10) - 500 x(9,10) >= 0
c89: 5000 x(10,1) - 500 x(10,1) >= 0
c90: 5000 x(10,2) - 500 x(10,2) >= 0
c91: 5000 x(10,3) - 500 x(10,3) >= 0
c92: 5000 x(10,4) - 500 x(10,4) >= 0
c93: 5000 x(10,5) - 500 x(10,5) >= 0
c94: 5000 x(10,6) - 500 x(10,6) >= 0
c95: 5000 x(10,7) - 500 x(10,7) >= 0
c96: 1000 x(11,1) - 500 x(11,1) >= 0
c97: 2000 x(12,1) - 500 x(12,1) >= 0
c98: 2000 x(12,2) - 500 x(12,2) >= 0
c99: 2000 x(12,3) - 500 x(12,3) >= 0
c100: 2000 x(12,4) - 500 x(12,4) >= 0
c101: 2000 x(12,5) - 500 x(12,5) >= 0
c102: 2000 x(12,6) - 500 x(12,6) >= 0
c103: 2000 x(12,7) - 500 x(12,7) >= 0
c104: 2000 x(12,8) - 500 x(12,8) >= 0
c105: 2000 x(12,9) - 500 x(12,9) >= 0
c106: 2000 x(12,10) - 500 x(12,10) >= 0
c107: 5000 x(13,1) - 500 x(13,1) >= 0
c108: 5000 x(13,2) - 500 x(13,2) >= 0
c109: 5000 x(13,3) - 500 x(13,3) >= 0
c110: 5000 x(13,4) - 500 x(13,4) >= 0
c111: 5000 x(13,5) - 500 x(13,5) >= 0
c112: 5000 x(13,6) - 500 x(13,6) >= 0
c113: 5000 x(13,7) - 500 x(13,7) >= 0
c114: 5000 x(13,8) - 500 x(13,8) >= 0
c115: 5000 x(13,9) - 500 x(13,9) >= 0
c116: 5000 x(13,10) - 500 x(13,10) >= 0
c117: 2000 x(14,1) - 500 x(14,1) >= 0
c118: 2000 x(14,2) - 500 x(14,2) >= 0
c119: 2000 x(14,3) - 500 x(14,3) >= 0
c120: 2000 x(14,4) - 500 x(14,4) >= 0
c121: 2000 x(14,5) - 500 x(14,5) >= 0
c122: 2000 x(14,6) - 500 x(14,6) >= 0
c123: 2000 x(14,7) - 500 x(14,7) >= 0
c124: 2000 x(14,8) - 500 x(14,8) >= 0
c125: 2000 x(14,9) - 500 x(14,9) >= 0
c126: 2000 x(14,10) - 500 x(14,10) >= 0
c127: 3000 x(15,1) - 500 x(15,1) >= 0
c128: 4000 x(16,1) - 500 x(16,1) >= 0
c129: 5000 x(17,1) - 500 x(17,1) >= 0
c130: 4000 x(18,1) - 500 x(18,1) >= 0
c131: 4000 x(18,2) - 500 x(18,2) >= 0
c132: 4000 x(18,3) - 500 x(18,3) >= 0
c133: 4000 x(18,4) - 500 x(18,4) >= 0
c134: 4000 x(18,5) - 500 x(18,5) >= 0
c135: 4000 x(18,6) - 500 x(18,6) >= 0
c136: 4000 x(18,7) - 500 x(18,7) >= 0
c137: 4000 x(18,8) - 500 x(18,8) >= 0
c138: 4000 x(18,9) - 500 x(18,9) >= 0
c139: 4000 x(19,1) - 500 x(19,1) >= 0
c140: 4000 x(19,2) - 500 x(19,2) >= 0
c141: 4000 x(19,3) - 500 x(19,3) >= 0
c142: 4000 x(19,4) - 500 x(19,4) >= 0
c143: 4000 x(19,5) - 500 x(19,5) >= 0
c144: 4000 x(19,6) - 500 x(19,6) >= 0
c145: 4000 x(19,7) - 500 x(19,7) >= 0
c146: 4000 x(19,8) - 500 x(19,8) >= 0
c147: 4000 x(19,9) - 500 x(19,9) >= 0
c148: 4000 x(19,10) - 500 x(19,10) >= 0
c149: 2000 x(20,1) - 500 x(20,1) >= 0
c150: 2000 x(20,2) - 500 x(20,2) >= 0
c151: 2000 x(20,3) - 500 x(20,3) >= 0
c152: 2000 x(20,4) - 500 x(20,4) >= 0
c153: 2000 x(20,5) - 500 x(20,5) >= 0
c154: 2000 x(20,6) - 500 x(20,6) >= 0
c155: 2000 x(20,7) - 500 x(20,7) >= 0
c156: 2000 x(20,8) - 500 x(20,8) >= 0
c157: 2000 x(20,9) - 500 x(20,9) >= 0
c158: 2000 x(20,10) - 500 x(20,10) >= 0

bounds
x(1,1)
x(1,2)
x(1,3)
x(1,4)
x(1,5)
x(1,6)
x(1,7)
x(1,8)
x(1,9)
x(1,10)
x(2,1)
x(3,1)
x(4,1)
x(4,2)
x(4,3)
x(5,1)
x(5,2)
x(5,3)
x(5,4)
x(5,5)
x(5,6)
x(5,7)
x(5,8)
x(5,9)
x(5,10)
x(6,1)
x(6,2)
x(6,3)
x(6,4)
x(6,5)
x(6,6)
x(6,7)
x(6,8)
x(6,9)
x(6,10)
x(7,1)
x(7,2)
x(7,3)
x(7,4)
x(7,5)
x(7,6)
x(7,7)
x(7,8)
x(7,9)
x(7,10)
x(8,1)
x(8,2)
x(8,3)
x(8,4)
x(8,5)
x(8,6)
x(8,7)
x(8,8)
x(8,9)
x(8,10)
x(9,1)
x(9,2)
x(9,3)
x(9,4)
x(9,5)
x(9,6)
x(9,7)
x(9,8)
x(9,9)
x(9,10)
x(10,1)
x(10,2)
x(10,3)
x(10,4)
x(10,5)
x(10,6)
x(10,7)
x(11,1)
x(12,1)
x(12,2)
x(12,3)
x(12,4)
x(12,5)
x(12,6)
x(12,7)
x(12,8)
x(12,9)
x(12,10)
x(13,1)
x(13,2)
x(13,3)
x(13,4)
x(13,5)
x(13,6)
x(13,7)
x(13,8)
x(13,9)
x(13,10)
x(14,1)
x(14,2)
x(14,3)
x(14,4)
x(14,5)
x(14,6)
x(14,7)
x(14,8)
x(14,9)
x(14,10)
x(15,1)
x(16,1)
x(17,1)
x(18,1)
x(18,2)
x(18,3)
x(18,4)
x(18,5)
x(18,6)
x(18,7)
x(18,8)
x(18,9)
x(19,1)
x(19,2)
x(19,3)
x(19,4)
x(19,5)
x(19,6)
x(19,7)
x(19,8)
x(19,9)
x(19,10)
x(20,1)
x(20,2)
x(20,3)
x(20,4)
x(20,5)
x(20,6)
x(20,7)
x(20,8)
x(20,9)
x(20,10)
binary
x(1,1)
x(1,2)
x(1,3)
x(1,4)
x(1,5)
x(1,6)
x(1,7)
x(1,8)
x(1,9)
x(1,10)
x(2,1)
x(3,1)
x(4,1)
x(4,2)
x(4,3)
x(5,1)
x(5,2)
x(5,3)
x(5,4)
x(5,5)
x(5,6)
x(5,7)
x(5,8)
x(5,9)
x(5,10)
x(6,1)
x(6,2)
x(6,3)
x(6,4)
x(6,5)
x(6,6)
x(6,7)
x(6,8)
x(6,9)
x(6,10)
x(7,1)
x(7,2)
x(7,3)
x(7,4)
x(7,5)
x(7,6)
x(7,7)
x(7,8)
x(7,9)
x(7,10)
x(8,1)
x(8,2)
x(8,3)
x(8,4)
x(8,5)
x(8,6)
x(8,7)
x(8,8)
x(8,9)
x(8,10)
x(9,1)
x(9,2)
x(9,3)
x(9,4)
x(9,5)
x(9,6)
x(9,7)
x(9,8)
x(9,9)
x(9,10)
x(10,1)
x(10,2)
x(10,3)
x(10,4)
x(10,5)
x(10,6)
x(10,7)
x(11,1)
x(12,1)
x(12,2)
x(12,3)
x(12,4)
x(12,5)
x(12,6)
x(12,7)
x(12,8)
x(12,9)
x(12,10)
x(13,1)
x(13,2)
x(13,3)
x(13,4)
x(13,5)
x(13,6)
x(13,7)
x(13,8)
x(13,9)
x(13,10)
x(14,1)
x(14,2)
x(14,3)
x(14,4)
x(14,5)
x(14,6)
x(14,7)
x(14,8)
x(14,9)
x(14,10)
x(15,1)
x(16,1)
x(17,1)
x(18,1)
x(18,2)
x(18,3)
x(18,4)
x(18,5)
x(18,6)
x(18,7)
x(18,8)
x(18,9)
x(19,1)
x(19,2)
x(19,3)
x(19,4)
x(19,5)
x(19,6)
x(19,7)
x(19,8)
x(19,9)
x(19,10)
x(20,1)
x(20,2)
x(20,3)
x(20,4)
x(20,5)
x(20,6)
x(20,7)
x(20,8)
x(20,9)
x(20,10)
end